
Gurobi 12.0.2 (win64) logging started Fri Jun  6 10:09:19 2025

Set parameter LogFile to value "C:\Ioana\_uni\honours\slp\algorithm\Main_files\results\others\prox_tubules_new\Task_003_Sample001_irr_gurobi.log"
Gurobi Optimizer version 12.0.2 build v12.0.2rc0 (win64 - Windows 11.0 (26100.2))

CPU model: Intel(R) Core(TM) Ultra 5 125H, instruction set [SSE2|AVX|AVX2]
Thread count: 14 physical cores, 18 logical processors, using up to 18 threads

Non-default parameters:
TimeLimit  2200

Optimize a model with 47658 rows, 34799 columns and 147846 nonzeros
Model fingerprint: 0x75d3333c
Variable types: 17405 continuous, 17394 integer (17394 binary)
Coefficient statistics:
  Matrix range     [1e-04, 8e+04]
  Objective range  [1e-04, 1e+01]
  Bounds range     [1e+00, 1e+03]
  RHS range        [1e+00, 1e+00]
Presolve removed 31204 rows and 21835 columns
Presolve time: 0.34s
Presolved: 16454 rows, 12964 columns, 54691 nonzeros
Variable types: 6418 continuous, 6546 integer (6546 binary)

Root relaxation: objective 5.312288e-03, 2603 iterations, 0.18 seconds (0.34 work units)

    Nodes    |    Current Node    |     Objective Bounds      |     Work
 Expl Unexpl |  Obj  Depth IntInf | Incumbent    BestBd   Gap | It/Node Time

     0     0    0.00531    0   11          -    0.00531      -     -    0s
H    0     0                       4.4262070    0.00531   100%     -    0s
     0     0    1.76560    0   13    4.42621    1.76560  60.1%     -    0s
     0     0    1.76753    0   14    4.42621    1.76753  60.1%     -    1s
     0     0    2.34524    0   21    4.42621    2.34524  47.0%     -    1s
     0     0    2.78107    0   22    4.42621    2.78107  37.2%     -    1s
     0     0    3.14341    0   27    4.42621    3.14341  29.0%     -    1s
     0     0    3.14412    0   30    4.42621    3.14412  29.0%     -    1s
     0     0    3.14413    0   27    4.42621    3.14413  29.0%     -    1s
     0     0    3.14588    0   30    4.42621    3.14588  28.9%     -    1s
     0     0    3.14588    0   28    4.42621    3.14588  28.9%     -    1s
     0     0    3.53676    0   13    4.42621    3.53676  20.1%     -    1s
     0     0    3.53676    0    7    4.42621    3.53676  20.1%     -    1s
     0     0    4.42282    0   13    4.42621    4.42282  0.08%     -    1s
     0     0          -    0         4.42621    4.42620  0.00%     -    1s

Cutting planes:
  Cover: 2
  MIR: 8
  Flow cover: 16
  Flow path: 1
  Relax-and-lift: 2

Explored 1 nodes (5175 simplex iterations) in 1.82 seconds (2.04 work units)
Thread count was 18 (of 18 available processors)

Solution count 1: 4.42621 

Optimal solution found (tolerance 1.00e-04)
Best objective 4.426206975441e+00, best bound 4.426203117936e+00, gap 0.0001%

Gurobi 12.0.2 (win64) logging started Fri Jun  6 14:25:31 2025

Set parameter LogFile to value "C:\Ioana\_uni\honours\slp\algorithm\Main_files\results\others\prox_tubules_new\Task_003_Sample001_irr_gurobi.log"
Gurobi Optimizer version 12.0.2 build v12.0.2rc0 (win64 - Windows 11.0 (26100.2))

CPU model: Intel(R) Core(TM) Ultra 5 125H, instruction set [SSE2|AVX|AVX2]
Thread count: 14 physical cores, 18 logical processors, using up to 18 threads

Non-default parameters:
TimeLimit  2200

Optimize a model with 47658 rows, 34799 columns and 147846 nonzeros
Model fingerprint: 0x75d3333c
Variable types: 17405 continuous, 17394 integer (17394 binary)
Coefficient statistics:
  Matrix range     [1e-04, 8e+04]
  Objective range  [1e-04, 1e+01]
  Bounds range     [1e+00, 1e+03]
  RHS range        [1e+00, 1e+00]
Presolve removed 31204 rows and 21835 columns
Presolve time: 0.32s
Presolved: 16454 rows, 12964 columns, 54691 nonzeros
Variable types: 6418 continuous, 6546 integer (6546 binary)

Root relaxation: objective 5.312288e-03, 2603 iterations, 0.17 seconds (0.34 work units)

    Nodes    |    Current Node    |     Objective Bounds      |     Work
 Expl Unexpl |  Obj  Depth IntInf | Incumbent    BestBd   Gap | It/Node Time

     0     0    0.00531    0   11          -    0.00531      -     -    0s
H    0     0                       4.4262070    0.00531   100%     -    0s
     0     0    1.76560    0   13    4.42621    1.76560  60.1%     -    0s
     0     0    1.76753    0   14    4.42621    1.76753  60.1%     -    0s
     0     0    2.34524    0   21    4.42621    2.34524  47.0%     -    1s
     0     0    2.78107    0   22    4.42621    2.78107  37.2%     -    1s
     0     0    3.14341    0   27    4.42621    3.14341  29.0%     -    1s
     0     0    3.14412    0   30    4.42621    3.14412  29.0%     -    1s
     0     0    3.14413    0   27    4.42621    3.14413  29.0%     -    1s
     0     0    3.14588    0   30    4.42621    3.14588  28.9%     -    1s
     0     0    3.14588    0   28    4.42621    3.14588  28.9%     -    1s
     0     0    3.53676    0   13    4.42621    3.53676  20.1%     -    1s
     0     0    3.53676    0    7    4.42621    3.53676  20.1%     -    1s
     0     0    4.42282    0   13    4.42621    4.42282  0.08%     -    1s
     0     0          -    0         4.42621    4.42620  0.00%     -    1s

Cutting planes:
  Cover: 2
  MIR: 8
  Flow cover: 16
  Flow path: 1
  Relax-and-lift: 2

Explored 1 nodes (5175 simplex iterations) in 1.82 seconds (2.04 work units)
Thread count was 18 (of 18 available processors)

Solution count 1: 4.42621 

Optimal solution found (tolerance 1.00e-04)
Best objective 4.426206975441e+00, best bound 4.426203117936e+00, gap 0.0001%
